n = 3;
m = 3;
num_of_regions = 33;
regions_max_size = 4;

regions = [|
9, 2, 1,1, 2,1, 0,0, 0,0, |
13, 2, 1,2, 1,3, 0,0, 0,0, |
13, 2, 1,4, 1,5, 0,0, 0,0, |
12, 2, 1,6, 2,6, 0,0, 0,0, |
13, 2, 1,7, 1,8, 0,0, 0,0, |
15, 3, 1,9, 2,9, 3,9, 0,0, |
13, 2, 2,2, 2,3, 0,0, 0,0, |
6, 2, 2,4, 3,4, 0,0, 0,0, |
14, 3, 2,5, 3,5, 3,6, 0,0, |
17, 4, 2,7, 2,8, 3,7, 3,8, |
5, 2, 3,1, 3,2, 0,0, 0,0, |
6, 2, 3,3, 4,3, 0,0, 0,0, |
15, 2, 4,1, 5,1, 0,0, 0,0, |
7, 2, 4,2, 5,2, 0,0, 0,0, |
8, 2, 4,4, 4,5, 0,0, 0,0, |
23, 4, 4,6, 4,7, 5,6, 5,7, |
18, 3, 4,8, 4,9, 5,9, 0,0, |
11, 3, 5,3, 5,4, 6,4, 0,0, |
16, 2, 5,5, 6,5, 0,0, 0,0, |
12, 3, 5,8, 6,7, 6,8, 0,0, |
12, 2, 6,1, 7,1, 0,0, 0,0, |
17, 2, 6,2, 7,2, 0,0, 0,0, |
11, 2, 6,3, 7,3, 0,0, 0,0, |
3, 2, 6,6, 7,6, 0,0, 0,0, |
10, 2, 6,9, 7,9, 0,0, 0,0, |
19, 3, 7,4, 8,4, 9,4, 0,0, |
6, 2, 7,5, 8,5, 0,0, 0,0, |
11, 2, 7,7, 8,7, 0,0, 0,0, |
11, 2, 7,8, 8,8, 0,0, 0,0, |
7, 2, 8,1, 9,1, 0,0, 0,0, |
16, 4, 8,2, 8,3, 9,2, 9,3, |
19, 3, 8,6, 9,5, 9,6, 0,0, |
17, 4, 8,9, 9,7, 9,8, 9,9, |];